p tw 130 300
0 1
0 2
0 14
0 15
0 37
0 38
0 52
0 63
0 64
0 65
0 72
0 73
0 47
0 62
0 43
0 111
1 2
1 8
1 23
3 4
3 5
3 15
3 42
3 43
3 44
3 74
3 75
3 35
3 90
3 96
3 97
3 86
3 119
3 82
3 126
3 54
3 105
3 92
3 127
4 5
5 36
5 116
6 7
6 8
6 11
6 104
7 8
7 21
7 124
8 12
8 13
8 24
8 41
8 9
8 52
8 53
8 54
8 23
8 84
8 107
8 85
8 118
8 95
8 97
9 10
9 11
9 52
10 11
10 26
10 68
11 50
11 51
11 25
11 59
11 37
11 71
11 90
11 91
11 49
11 93
11 102
11 103
11 104
11 34
11 99
11 13
11 89
11 53
11 121
11 61
11 123
11 113
11 127
12 13
12 36
12 82
13 89
14 15
14 36
14 66
15 42
16 17
16 18
16 45
16 120
17 18
17 26
17 49
18 22
18 23
18 27
18 28
18 29
18 30
18 39
18 40
18 47
18 48
18 67
18 68
18 31
18 70
18 76
18 95
18 108
18 109
18 57
18 104
18 112
18 113
18 66
18 100
19 20
19 21
19 45
19 103
20 21
20 36
20 55
21 31
21 32
21 30
21 87
21 96
21 110
21 64
21 115
21 124
22 23
22 33
22 75
24 25
24 26
24 41
25 26
25 59
26 49
26 57
26 58
26 61
26 62
26 88
26 89
26 79
26 92
26 68
26 100
26 101
26 39
26 114
26 87
26 125
26 73
26 119
26 106
26 128
27 28
28 35
28 36
29 30
29 45
29 60
30 87
31 32
31 70
32 33
32 34
33 34
33 38
33 56
33 75
33 46
33 80
33 83
33 84
33 115
33 116
33 93
33 117
33 91
33 122
33 51
33 114
33 102
33 129
34 99
35 36
35 90
36 55
36 66
36 48
36 69
36 76
36 77
36 78
36 79
36 60
36 81
36 82
36 85
36 86
36 40
36 94
36 98
36 99
36 116
37 38
37 71
38 56
39 40
39 114
40 94
41 45
41 46
43 44
43 111
45 46
45 60
45 105
45 106
45 83
45 111
45 120
45 103
45 71
45 109
46 80
47 48
47 62
48 69
49 93
50 51
51 114
52 63
53 54
53 121
54 105
57 58
57 104
60 81
61 62
61 123
64 65
64 115
66 100
67 68
71 109
72 73
73 119
74 75
76 77
76 95
78 79
79 92
82 126
83 84
83 111
84 107
85 86
85 118
86 119
87 125
88 89
90 91
91 122
92 127
93 117
95 97
96 97
96 110
98 99
100 101
102 103
102 129
105 106
106 128
108 109
112 113
113 127
115 116
